(declare-const a Real)
(declare-const b Real)
(declare-const c Real)
(assert (= (+ a b c) 3))
(assert (> a 0))
(assert (> b 0))
(assert (> c 0))
(assert (not (<= (+ (/ -3 4) (* a (pow (+ (* 2 (pow b 2)) (* 2 (pow c 2)) (* 44 (pow a 2)) (* 4 b c) (* 10 a b) (* 10 a c)) -1) (+ 9 (pow (+ a b c) 2))) (* 3 b (pow (+ (pow a 2) (pow c 2) (* 22 (pow b 2)) (* 2 a c) (* 5 a b) (* 5 b c)) -1) (+ a b c)) (* 3 c (pow (+ (pow a 2) (pow b 2) (* 22 (pow c 2)) (* 2 a b) (* 5 a c) (* 5 b c)) -1) (+ a b c))) 0)))
(check-sat)
(get-model)
(exit)